(set-info :source |printed by MathSAT|)

0 (5) @37:
(assert true)

5 (12) @51:
(assert true)

12 (17,16,15,14) @51:
(assert true)

17 () @406:
(assert true)

16 () @407:
(assert true)

15 () @51:
(assert true)

14 () @408:
(assert true)

